0 309906 
1 309318 
2 308946 
3 308262 
4 306886 
5 305432 
6 305286 
7 304258 
8 303526 
9 300628 
10 299690 
11 298806 
12 298064 
13 297896 
14 297420 
15 291800 
16 289046 
17 287354 
18 282794 
19 282204 
20 278954 
21 277980 
22 276682 
23 274586 
24 273210 
25 270692 
26 270536 
27 265882 
28 264488 
29 261830 
30 259872 
31 255386 
32 254766 
33 251596 
34 248704 
35 247556 
36 246794 
37 246266 
38 244786 
39 244040 
40 241802 
41 241802 

